W=5;
H=5;

MAX_TIME=16;
MAX_TRACKS=11;

TARGET=(1,5);

TRAINS=[(3,1,TOP),(3,5,DOWN)];

INIT_POS=[
(1,3,STRAIGHT_TD),
(1,5,STRAIGHT_RL),
(2,1,STRAIGHT_TD),
(2,3,ESWITCH_T_D_L),
(3,1,STRAIGHT_TD),
(3,3,ESWITCH_D_T_R),
(3,5,STRAIGHT_TD),
(4,3,ESWITCH_T_D_L),
(4,5,STRAIGHT_TD),
];
TUNNEL_PAIRS=[];

GATES=[];
ACTIVATIONS=[];

DSWITCHES=[];
STATIONS=[];
